--- Job tut_1_2_wk3.gms Start 01/30/20 17:25:34 30.1.0 re01a340 DEX-DEG x86 64bit/Mac OS X
--- GAMS Parameters defined
    Input /Users/victor_medina/OneDrive - University of Edinburgh/Tutorials/BUST10134/wk3/tut_1_2_wk3.gms
    PageSize 0
    ScrDir /Users/victor_medina/OneDrive - University of Edinburgh/Tutorials/BUST10134/wk3/225a/
    SysDir /Applications/GAMS30.1/GAMS Terminal.app/Contents/MacOS/
    LogOption 3
    ErrMsg 1
    ErrorLog 99
    IDE 1
    LstTitleLeftAligned 1
GAMS 30.1.0   Copyright (C) 1987-2020 GAMS Development. All rights reserved
Licensee: Course License Advanced Analytics with MathematG190618/0001AO-GEN
          The University of Edinburgh - Business School               DCE66
          Course license for use within the course and related course work
--- Starting compilation
--- tut_1_2_wk3.gms(54) 3 Mb
--- Starting execution: elapsed 0:00:00.003
--- Generating LP model transport2
--- tut_1_2_wk3.gms(51) 4 Mb
---   6 rows  13 columns  37 non-zeroes
--- Executing CPLEX: elapsed 0:00:00.009
IBM ILOG CPLEX   30.1.0 re01a340 Released Jan 10, 2020 DEG x86 64bit/Mac OS X 
--- GAMS/Cplex licensed for continuous and discrete problems.
Cplex 12.10.0.0
Reading data...
Starting Cplex...
Space for names approximately 0.00 Mb
Use option 'names no' to turn use of names off
Version identifier: 12.10.0.0 | 2019-11-26 | 843d4de
CPXPARAM_Advance                                 0
CPXPARAM_Simplex_Display                         2
CPXPARAM_Threads                                 1
CPXPARAM_Parallel                                1
CPXPARAM_Simplex_Limits_Iterations               2000000000
CPXPARAM_TimeLimit                               1000
CPXPARAM_Tune_TimeLimit                          200
Tried aggregator 1 time.
LP Presolve eliminated 2 rows and 7 columns.
Aggregator did 3 substitutions.
Reduced LP has 1 rows, 3 columns, and 3 nonzeros.
Presolve time = 0.00 sec. (0.01 ticks)
Iteration      Dual Objective            In Variable           Out Variable
     1            1150.000000x(Supershelf.Zeron_S.Hecap_constr(Arnold artif
LP status(1): optimal
Cplex Time: 0.00sec (det. 0.01 ticks)
Optimal solution found.
Objective :        1150.000000
--- Restarting execution
--- tut_1_2_wk3.gms(51) 2 Mb
--- Reading solution for model transport2
--- Executing after solve: elapsed 0:00:00.059
--- tut_1_2_wk3.gms(54) 3 Mb
*** Status: Normal completion
--- Job tut_1_2_wk3.gms Stop 01/30/20 17:25:34 elapsed 0:00:00.060

